NAME: Taillard-100A
BEST_KNOWN: 2041.34
COMMENT: 2041.340000
DIMENSION: 101
CAPACITY: 1409
EDGE_WEIGHT_FORMAT: FUNCTION
EDGE_WEIGHT_TYPE: EXACT_2D
NODE_COORD_SECTION
1 0.00000 0.00000
2 -5.00000 70.00000
3 -17.00000 69.00000
4 -19.00000 85.00000
5 9.00000 99.00000
6 15.00000 82.00000
7 -21.00000 102.00000
8 -16.00000 68.00000
9 15.00000 72.00000
10 12.00000 78.00000
11 1.00000 102.00000
12 15.00000 91.00000
13 9.00000 83.00000
14 2.00000 82.00000
15 -7.00000 76.00000
16 -17.00000 79.00000
17 12.00000 70.00000
18 -18.00000 99.00000
19 -9.00000 104.00000
20 9.00000 -24.00000
21 23.00000 -34.00000
22 9.00000 -44.00000
23 12.00000 -30.00000
24 16.00000 -36.00000
25 40.00000 -21.00000
26 39.00000 -15.00000
27 42.00000 -6.00000
28 29.00000 -43.00000
29 20.00000 -8.00000
30 24.00000 -38.00000
31 47.00000 -15.00000
32 34.00000 -28.00000
33 41.00000 -39.00000
34 39.00000 -30.00000
35 23.00000 -34.00000
36 38.00000 -8.00000
37 20.00000 -40.00000
38 21.00000 -9.00000
39 46.00000 -13.00000
40 90.00000 67.00000
41 70.00000 39.00000
42 78.00000 73.00000
43 49.00000 47.00000
44 45.00000 75.00000
45 86.00000 61.00000
46 86.00000 59.00000
47 54.00000 65.00000
48 46.00000 38.00000
49 63.00000 68.00000
50 55.00000 74.00000
51 62.00000 69.00000
52 58.00000 70.00000
53 25.00000 17.00000
54 7.00000 1.00000
55 8.00000 6.00000
56 12.00000 -2.00000
57 14.00000 -7.00000
58 13.00000 -1.00000
59 8.00000 12.00000
60 25.00000 13.00000
61 11.00000 3.00000
62 15.00000 -7.00000
63 4.00000 -6.00000
64 18.00000 -4.00000
65 10.00000 -1.00000
66 16.00000 -10.00000
67 96.00000 5.00000
68 60.00000 28.00000
69 75.00000 -19.00000
70 107.00000 5.00000
71 70.00000 -4.00000
72 110.00000 -2.00000
73 90.00000 3.00000
74 80.00000 -17.00000
75 59.00000 -21.00000
76 83.00000 14.00000
77 -56.00000 62.00000
78 -39.00000 71.00000
79 -40.00000 72.00000
80 -41.00000 77.00000
81 -37.00000 78.00000
82 -31.00000 70.00000
83 -52.00000 81.00000
84 -50.00000 81.00000
85 -41.00000 77.00000
86 -35.00000 85.00000
87 -41.00000 71.00000
88 -57.00000 72.00000
89 -47.00000 74.00000
90 -56.00000 70.00000
91 -32.00000 82.00000
92 -50.00000 69.00000
93 -57.00000 86.00000
94 -33.00000 79.00000
95 -64.00000 71.00000
96 -58.00000 56.00000
97 -74.00000 69.00000
98 -65.00000 57.00000
99 1.00000 56.00000
100 12.00000 41.00000
101 24.00000 53.00000
DEMAND_SECTION
1 0
2 13
3 122
4 30
5 3
6 5
7 422
8 13
9 22
10 173
11 41
12 8
13 8
14 110
15 198
16 384
17 193
18 238
19 265
20 3
21 469
22 7
23 6
24 108
25 10
26 40
27 635
28 49
29 149
30 403
31 42
32 70
33 201
34 66
35 526
36 6
37 279
38 160
39 3
40 4
41 105
42 46
43 474
44 7
45 7
46 99
47 126
48 119
49 46
50 273
51 91
52 294
53 4
54 81
55 285
56 90
57 462
58 65
59 6
60 4
61 529
62 165
63 4
64 394
65 3
66 60
67 899
68 169
69 10
70 47
71 37
72 23
73 25
74 444
75 3
76 99
77 58
78 7
79 11
80 15
81 381
82 7
83 39
84 502
85 115
86 85
87 3
88 136
89 111
90 66
91 50
92 252
93 4
94 119
95 746
96 6
97 51
98 322
99 1023
100 5
101 10
DEPOT_SECTION
1
-1
EOF
